SCIP version 8.0.0 [precision: 8 byte] [memory: block] [mode: optimized] [LP solver: SoPlex 6.0.0] [GitHash: a740f0891e]
Copyright (C) 2002-2021 Konrad-Zuse-Zentrum fuer Informationstechnik Berlin (ZIB)

External libraries: 
  SoPlex 6.0.0         Linear Programming Solver developed at Zuse Institute Berlin (soplex.zib.de) [GitHash: 71a5873d]
  CppAD 20180000.0     Algorithmic Differentiation of C++ algorithms developed by B. Bell (github.com/coin-or/CppAD)
  ZLIB 1.2.11          General purpose compression library by J. Gailly and M. Adler (zlib.net)
  GMP 6.2.1            GNU Multiple Precision Arithmetic Library developed by T. Granlund (gmplib.org)
  ZIMPL 3.5.1          Zuse Institute Mathematical Programming Language developed by T. Koch (zimpl.zib.de)
  AMPL/MP 4e2d45c4     AMPL .nl file reader library (github.com/ampl/mp)
  PaPILO 2.0.0         parallel presolve for integer and linear optimization (github.com/scipopt/papilo) [GitHash: 76cafc1]
  bliss 0.73p          Computing Graph Automorphism Groups by T. Junttila and P. Kaski (www.tcs.hut.fi/Software/bliss/)
  Ipopt 3.13.2         Interior Point Optimizer developed by A. Waechter et.al. (github.com/coin-or/Ipopt)

user parameter file <scip.set> not found - using default parameters

read problem <../modeles/5_114.lp>
============

original problem has 1150 variables (570 bin, 0 int, 0 impl, 580 cont) and 591 constraints

solve problem
=============

presolving:
(round 1, fast)       5 del vars, 0 del conss, 0 add conss, 1220 chg bounds, 0 chg sides, 0 chg coeffs, 0 upgd conss, 0 impls, 5 clqs
(round 2, fast)       5 del vars, 0 del conss, 0 add conss, 1220 chg bounds, 0 chg sides, 570 chg coeffs, 0 upgd conss, 0 impls, 5 clqs
   (0.0s) running MILP presolver
   (0.0s) MILP presolver (24 rounds): 0 aggregations, 335 fixings, 10 bound changes
(round 3, medium)     340 del vars, 591 del conss, 436 add conss, 1230 chg bounds, 0 chg sides, 570 chg coeffs, 0 upgd conss, 0 impls, 5 clqs
(round 4, exhaustive) 340 del vars, 591 del conss, 436 add conss, 1230 chg bounds, 0 chg sides, 570 chg coeffs, 65 upgd conss, 0 impls, 5 clqs
(round 5, exhaustive) 365 del vars, 591 del conss, 436 add conss, 1230 chg bounds, 0 chg sides, 570 chg coeffs, 65 upgd conss, 3958 impls, 5 clqs
(round 6, fast)       366 del vars, 599 del conss, 436 add conss, 1231 chg bounds, 0 chg sides, 570 chg coeffs, 65 upgd conss, 3958 impls, 5 clqs
(round 7, exhaustive) 366 del vars, 599 del conss, 436 add conss, 1231 chg bounds, 0 chg sides, 570 chg coeffs, 88 upgd conss, 3958 impls, 5 clqs
(round 8, exhaustive) 391 del vars, 599 del conss, 436 add conss, 1231 chg bounds, 0 chg sides, 570 chg coeffs, 88 upgd conss, 6681 impls, 5 clqs
(round 9, fast)       391 del vars, 609 del conss, 436 add conss, 1231 chg bounds, 0 chg sides, 570 chg coeffs, 88 upgd conss, 6681 impls, 5 clqs
(round 10, exhaustive) 391 del vars, 609 del conss, 436 add conss, 1231 chg bounds, 0 chg sides, 570 chg coeffs, 107 upgd conss, 6681 impls, 5 clqs
(round 11, exhaustive) 416 del vars, 609 del conss, 436 add conss, 1231 chg bounds, 0 chg sides, 570 chg coeffs, 107 upgd conss, 8854 impls, 5 clqs
(round 12, fast)       418 del vars, 625 del conss, 436 add conss, 1233 chg bounds, 0 chg sides, 570 chg coeffs, 107 upgd conss, 8854 impls, 5 clqs
(round 13, exhaustive) 418 del vars, 625 del conss, 436 add conss, 1233 chg bounds, 0 chg sides, 570 chg coeffs, 113 upgd conss, 8854 impls, 5 clqs
(round 14, exhaustive) 443 del vars, 625 del conss, 436 add conss, 1233 chg bounds, 0 chg sides, 570 chg coeffs, 113 upgd conss, 10979 impls, 5 clqs
(round 15, fast)       444 del vars, 642 del conss, 436 add conss, 1234 chg bounds, 0 chg sides, 570 chg coeffs, 113 upgd conss, 10979 impls, 5 clqs
(round 16, exhaustive) 444 del vars, 642 del conss, 436 add conss, 1234 chg bounds, 0 chg sides, 570 chg coeffs, 114 upgd conss, 10979 impls, 5 clqs
(round 17, exhaustive) 469 del vars, 642 del conss, 436 add conss, 1234 chg bounds, 0 chg sides, 570 chg coeffs, 114 upgd conss, 13887 impls, 5 clqs
(round 18, fast)       471 del vars, 658 del conss, 436 add conss, 1236 chg bounds, 0 chg sides, 570 chg coeffs, 114 upgd conss, 13887 impls, 5 clqs
   (0.1s) running MILP presolver
   (0.1s) MILP presolver (7 rounds): 0 aggregations, 44 fixings, 0 bound changes
(round 19, medium)     515 del vars, 678 del conss, 436 add conss, 1236 chg bounds, 0 chg sides, 570 chg coeffs, 114 upgd conss, 13887 impls, 5 clqs
(round 20, fast)       515 del vars, 684 del conss, 436 add conss, 1236 chg bounds, 0 chg sides, 570 chg coeffs, 114 upgd conss, 13887 impls, 5 clqs
(round 21, exhaustive) 515 del vars, 684 del conss, 436 add conss, 1236 chg bounds, 0 chg sides, 570 chg coeffs, 123 upgd conss, 13887 impls, 5 clqs
(round 22, exhaustive) 542 del vars, 684 del conss, 436 add conss, 1236 chg bounds, 0 chg sides, 570 chg coeffs, 123 upgd conss, 15687 impls, 5 clqs
(round 23, fast)       542 del vars, 701 del conss, 436 add conss, 1236 chg bounds, 0 chg sides, 570 chg coeffs, 123 upgd conss, 15687 impls, 5 clqs
(round 24, exhaustive) 542 del vars, 701 del conss, 436 add conss, 1236 chg bounds, 0 chg sides, 570 chg coeffs, 126 upgd conss, 15687 impls, 5 clqs
   (0.2s) probing cycle finished: starting next cycle
   (0.2s) probing: 113/290 (39.0%) - 175 fixings, 0 aggregations, 20277 implications, 0 bound changes
   (0.2s) probing aborted: 50/50 successive totally useless probings
(round 25, exhaustive) 565 del vars, 701 del conss, 436 add conss, 1236 chg bounds, 0 chg sides, 570 chg coeffs, 126 upgd conss, 20398 impls, 5 clqs
(round 26, fast)       565 del vars, 713 del conss, 436 add conss, 1236 chg bounds, 0 chg sides, 570 chg coeffs, 126 upgd conss, 20398 impls, 5 clqs
(round 27, exhaustive) 565 del vars, 713 del conss, 436 add conss, 1236 chg bounds, 0 chg sides, 570 chg coeffs, 128 upgd conss, 20398 impls, 5 clqs
   (0.2s) probing: 118/290 (40.7%) - 175 fixings, 0 aggregations, 20277 implications, 0 bound changes
   (0.2s) probing aborted: 50/50 successive totally useless probings
   (0.2s) symmetry computation started: requiring (bin +, int -, cont +), (fixed: bin -, int +, cont -)
   (0.2s) symmetry computation finished: 4 generators found (max: 1500, log10 of symmetry group size: 2.1)
(round 28, exhaustive) 565 del vars, 713 del conss, 437 add conss, 1236 chg bounds, 0 chg sides, 570 chg coeffs, 128 upgd conss, 20398 impls, 5 clqs
presolving (29 rounds: 29 fast, 19 medium, 17 exhaustive):
 565 deleted vars, 713 deleted constraints, 437 added constraints, 1236 tightened bounds, 0 added holes, 0 changed sides, 570 changed coefficients
 20398 implications, 5 cliques
presolved problem has 585 variables (290 bin, 0 int, 0 impl, 295 cont) and 312 constraints
     10 constraints of type <varbound>
      5 constraints of type <setppc>
    296 constraints of type <linear>
      1 constraints of type <orbitope>
Presolving Time: 0.18

 time | node  | left  |LP iter|LP it/n|mem/heur|mdpt |vars |cons |rows |cuts |sepa|confs|strbr|  dualbound   | primalbound  |  gap   | compl. 
  0.2s|     1 |     0 |    97 |     - |    18M |   0 | 585 | 313 | 311 |   0 |  0 |   0 |   0 |-2.234737e+00 |      --      |    Inf | unknown
o 0.2s|     1 |     0 |   125 |     - |feaspump|   0 | 585 | 313 | 311 |   0 |  0 |   0 |   0 |-2.234737e+00 |-2.234737e+00 |   0.00%| unknown
  0.2s|     1 |     0 |   125 |     - |    18M |   0 | 585 | 313 | 311 |   0 |  0 |   0 |   0 |-2.234737e+00 |-2.234737e+00 |   0.00%| unknown

SCIP Status        : problem is solved [optimal solution found]
Solving Time (sec) : 0.19
Solving Nodes      : 1
Primal Bound       : -2.23473684210526e+00 (1 solutions)
Dual Bound         : -2.23473684210526e+00
Gap                : 0.00 %

primal solution (original space):
=================================

objective value:                    -2.23473684210526
y_1,44_                                             1 	(obj:0)
y_3,44_                                             1 	(obj:0)
y_5,44_                                             1 	(obj:0)
y_4,45_                                             1 	(obj:0)
y_2,46_                                             1 	(obj:0)
t_3,45_                                             1 	(obj:0)
x_3_                               -0.456140350877193 	(obj:1)
x_2_                               -0.421052631578947 	(obj:1)
t_4,45_                             0.689999999999997 	(obj:0)
t_4,46_                             0.310000000000003 	(obj:0)
x_4_                               -0.445263157894737 	(obj:1)
x_5_                               -0.456140350877193 	(obj:1)
t_1,45_                                             1 	(obj:0)
x_1_                               -0.456140350877193 	(obj:1)
t_5,45_                                             1 	(obj:0)
t_2,46_                                             1 	(obj:0)

Statistics
==========

SCIP Status        : problem is solved [optimal solution found]
Total Time         :       0.19
  solving          :       0.19
  presolving       :       0.18 (included in solving)
  reading          :       0.00
  copying          :       0.00 (0 times copied the problem)
Original Problem   :
  Problem name     : ../modeles/5_114.lp
  Variables        : 1150 (570 binary, 0 integer, 0 implicit integer, 580 continuous)
  Constraints      : 591 initial, 591 maximal
  Objective        : minimize, 5 non-zeros (abs.min = 1, abs.max = 1)
Presolved Problem  :
  Problem name     : t_../modeles/5_114.lp
  Variables        : 585 (290 binary, 0 integer, 0 implicit integer, 295 continuous)
  Constraints      : 312 initial, 313 maximal
  Objective        : minimize, 290 non-zeros (abs.min = 0.0350877, abs.max = 1.01754)
  Nonzeros         : 2330 constraint, 290 clique table
Presolvers         :   ExecTime  SetupTime  Calls  FixedVars   AggrVars   ChgTypes  ChgBounds   AddHoles    DelCons    AddCons   ChgSides   ChgCoefs
  boundshift       :       0.00       0.00      0          0          0          0          0          0          0          0          0          0
  convertinttobin  :       0.00       0.00      0          0          0          0          0          0          0          0          0          0
  domcol           :       0.01       0.00      9          0          0          0          0          0          0          0          0          0
  dualagg          :       0.00       0.00      0          0          0          0          0          0          0          0          0          0
  dualcomp         :       0.00       0.00      9          0          0          0          0          0          0          0          0          0
  dualinfer        :       0.00       0.00      0          0          0          0          0          0          0          0          0          0
  dualsparsify     :       0.00       0.00      1          0          0          0          0          0          0          0          0          0
  gateextraction   :       0.00       0.00      0          0          0          0          0          0          0          0          0          0
  implics          :       0.00       0.00     19          0          0          0          0          0          0          0          0          0
  inttobinary      :       0.00       0.00      0          0          0          0          0          0          0          0          0          0
  milp             :       0.05       0.00      2        379          0          0         10          0        591        436          0          0
  qpkktref         :       0.00       0.00      0          0          0          0          0          0          0          0          0          0
  redvub           :       0.00       0.00      0          0          0          0          0          0          0          0          0          0
  sparsify         :       0.01       0.00      3          0          0          0          0          0          0          0          0          0
  stuffing         :       0.00       0.00      0          0          0          0          0          0          0          0          0          0
  trivial          :       0.00       0.00     29          0          0          0          0          0          0          0          0          0
  tworowbnd        :       0.00       0.00      0          0          0          0          0          0          0          0          0          0
  dualfix          :       0.00       0.00     29          0          0          0          0          0          0          0          0          0
  genvbounds       :       0.00       0.00      0          0          0          0          0          0          0          0          0          0
  probing          :       0.08       0.00      8        175          0          0          0          0          0          0          0          0
  pseudoobj        :       0.00       0.00      0          0          0          0          0          0          0          0          0          0
  symmetry         :       0.00       0.00      1          0          0          0          0          0          0          1          0          0
  vbounds          :       0.00       0.00      1          0          0          0          0          0          0          0          0          0
  varbound         :       0.00       0.00     42          0          0          0          4          0        113          0          0          0
  setppc           :       0.00       0.00     58          0          0          0          0          0          0          0          0          0
  linear           :       0.01       0.00     46          6          5          0       1222          0          9          0          0        570
  orbitope         :       0.00       0.00      1          0          0          0          0          0          0          0          0          0
  logicor          :       0.00       0.00      0          0          0          0          0          0          0          0          0          0
  benders          :       0.00       0.00      0          0          0          0          0          0          0          0          0          0
  components       :       0.00       0.00      1          0          0          0          0          0          0          0          0          0
  root node        :          -          -      -          0          -          -          0          -          -          -          -          -
Constraints        :     Number  MaxNumber  #Separate #Propagate    #EnfoLP    #EnfoRelax  #EnfoPS    #Check   #ResProp    Cutoffs    DomReds       Cuts    Applied      Conss   Children
  benderslp        :          0          0          0          0          0          0          0         12          0          0          0          0          0          0          0
  integral         :          0          0          0          0          0          0          0         12          0          0          0          0          0          0          0
  varbound         :         10         10          0       1511          0          0          0          6          0          0          0          0          0          0          0
  setppc           :          5          5          0       1509          0          0          0          6          0          0          0          0          0          0          0
  linear           :        296        296          0       1512          0          0          0          2          0         90          0          0          0          0          0
  orbitope         :          1          1          0         61          0          0          0          1          0          0          0          0          0          0          0
  logicor          :          0+         1          0          6          0          0          0          0          0          0          0          0          0          0          0
  benders          :          0          0          0          0          0          0          0          2          0          0          0          0          0          0          0
  countsols        :          0          0          0          0          0          0          0          2          0          0          0          0          0          0          0
  components       :          0          0          0          0          0          0          0          0          0          0          0          0          0          0          0
Constraint Timings :  TotalTime  SetupTime   Separate  Propagate     EnfoLP     EnfoPS     EnfoRelax   Check    ResProp    SB-Prop
  benderslp        :       0.00       0.00       0.00       0.00       0.00       0.00       0.00       0.00       0.00       0.00
  integral         :       0.00       0.00       0.00       0.00       0.00       0.00       0.00       0.00       0.00       0.00
  varbound         :       0.00       0.00       0.00       0.00       0.00       0.00       0.00       0.00       0.00       0.00
  setppc           :       0.00       0.00       0.00       0.00       0.00       0.00       0.00       0.00       0.00       0.00
  linear           :       0.03       0.00       0.00       0.03       0.00       0.00       0.00       0.00       0.00       0.00
  orbitope         :       0.00       0.00       0.00       0.00       0.00       0.00       0.00       0.00       0.00       0.00
  logicor          :       0.00       0.00       0.00       0.00       0.00       0.00       0.00       0.00       0.00       0.00
  benders          :       0.00       0.00       0.00       0.00       0.00       0.00       0.00       0.00       0.00       0.00
  countsols        :       0.00       0.00       0.00       0.00       0.00       0.00       0.00       0.00       0.00       0.00
  components       :       0.00       0.00       0.00       0.00       0.00       0.00       0.00       0.00       0.00       0.00
Propagators        : #Propagate   #ResProp    Cutoffs    DomReds
  dualfix          :          1          0          0          0
  genvbounds       :          0          0          0          0
  nlobbt           :          0          0          0          0
  obbt             :          0          0          0          0
  probing          :          0          0          0          0
  pseudoobj        :          2          0          0          0
  redcost          :          1          0          0          0
  rootredcost      :          0          0          0          0
  symmetry         :          0          0          0          0
  vbounds          :         42          0          0          0
Propagator Timings :  TotalTime  SetupTime   Presolve  Propagate    ResProp    SB-Prop
  dualfix          :       0.00       0.00       0.00       0.00       0.00       0.00
  genvbounds       :       0.00       0.00       0.00       0.00       0.00       0.00
  nlobbt           :       0.00       0.00       0.00       0.00       0.00       0.00
  obbt             :       0.00       0.00       0.00       0.00       0.00       0.00
  probing          :       0.08       0.00       0.08       0.00       0.00       0.00
  pseudoobj        :       0.00       0.00       0.00       0.00       0.00       0.00
  redcost          :       0.00       0.00       0.00       0.00       0.00       0.00
  rootredcost      :       0.00       0.00       0.00       0.00       0.00       0.00
  symmetry         :       0.00       0.00       0.00       0.00       0.00       0.00
  vbounds          :       0.00       0.00       0.00       0.00       0.00       0.00
Orbital fixing     :
  vars fixed to 0  :          0
  vars fixed to 1  :          0
Conflict Analysis  :       Time      Calls    Success    DomReds  Conflicts   Literals    Reconvs ReconvLits   Dualrays   Nonzeros   LP Iters   (pool size: [10000,10000])
  propagation      :       0.00          0          0          -          0        0.0          0        0.0          -          -          -
  infeasible LP    :       0.00          2          0          -          0        0.0          0        0.0          0        0.0          0
  bound exceed. LP :       0.00          0          0          -          0        0.0          0        0.0          0        0.0          0
  strong branching :       0.00          0          0          -          0        0.0          0        0.0          -          -          0
  pseudo solution  :       0.00          0          0          -          0        0.0          0        0.0          -          -          -
  applied globally :       0.00          -          -          0          0        0.0          -          -          0          -          -
  applied locally  :          -          -          -          0          0        0.0          -          -          0          -          -
Separators         :   ExecTime  SetupTime      Calls    Cutoffs    DomReds       Cuts    Applied      Conss
  cut pool         :       0.00                     0          -          -          0          -          -    (maximal pool size: 0)
  aggregation      :       0.00       0.00          0          0          0          0          0          0
  > cmir           :          -          -          -          -          -          -          0          -
  > flowcover      :          -          -          -          -          -          -          0          -
  > knapsackcover  :          -          -          -          -          -          -          0          -
  cgmip            :       0.00       0.00          0          0          0          0          0          0
  clique           :       0.00       0.00          0          0          0          0          0          0
  closecuts        :       0.00       0.00          0          0          0          0          0          0
  convexproj       :       0.00       0.00          0          0          0          0          0          0
  disjunctive      :       0.00       0.00          0          0          0          0          0          0
  eccuts           :       0.00       0.00          0          0          0          0          0          0
  gauge            :       0.00       0.00          0          0          0          0          0          0
  gomory           :       0.00       0.00          0          0          0          0          0          0
  > gomorymi       :          -          -          -          -          -          -          0          -
  > strongcg       :          -          -          -          -          -          -          0          -
  impliedbounds    :       0.00       0.00          0          0          0          0          0          0
  interminor       :       0.00       0.00          0          0          0          0          0          0
  intobj           :       0.00       0.00          0          0          0          0          0          0
  mcf              :       0.00       0.00          0          0          0          0          0          0
  minor            :       0.00       0.00          0          0          0          0          0          0
  mixing           :       0.00       0.00          0          0          0          0          0          0
  oddcycle         :       0.00       0.00          0          0          0          0          0          0
  rapidlearning    :       0.00       0.00          0          0          0          0          0          0
  rlt              :       0.00       0.00          0          0          0          0          0          0
  zerohalf         :       0.00       0.00          0          0          0          0          0          0
Cutselectors       :   ExecTime  SetupTime
  hybrid           :       0.00       0.00
Pricers            :   ExecTime  SetupTime      Calls       Vars
  problem variables:       0.00          -          0          0
Branching Rules    :   ExecTime  SetupTime   BranchLP  BranchExt   BranchPS    Cutoffs    DomReds       Cuts      Conss   Children
  allfullstrong    :       0.00       0.00          0          0          0          0          0          0          0          0
  cloud            :       0.00       0.00          0          0          0          0          0          0          0          0
  distribution     :       0.00       0.00          0          0          0          0          0          0          0          0
  fullstrong       :       0.00       0.00          0          0          0          0          0          0          0          0
  inference        :       0.00       0.00          0          0          0          0          0          0          0          0
  leastinf         :       0.00       0.00          0          0          0          0          0          0          0          0
  lookahead        :       0.00       0.00          0          0          0          0          0          0          0          0
  mostinf          :       0.00       0.00          0          0          0          0          0          0          0          0
  multaggr         :       0.00       0.00          0          0          0          0          0          0          0          0
  nodereopt        :       0.00       0.00          0          0          0          0          0          0          0          0
  pscost           :       0.00       0.00          0          0          0          0          0          0          0          0
  random           :       0.00       0.00          0          0          0          0          0          0          0          0
  relpscost        :       0.00       0.00          0          0          0          0          0          0          0          0
  vanillafullstrong:       0.00       0.00          0          0          0          0          0          0          0          0
Primal Heuristics  :   ExecTime  SetupTime      Calls      Found       Best
  LP solutions     :       0.00          -          -          0          0
  relax solutions  :       0.00          -          -          0          0
  pseudo solutions :       0.00          -          -          0          0
  strong branching :       0.00          -          -          0          0
  actconsdiving    :       0.00       0.00          0          0          0
  adaptivediving   :       0.00       0.00          0          0          0
  alns             :       0.00       0.00          0          0          0
  bound            :       0.00       0.00          0          0          0
  clique           :       0.00       0.00          1          0          0
  coefdiving       :       0.00       0.00          0          0          0
  completesol      :       0.00       0.00          0          0          0
  conflictdiving   :       0.00       0.00          0          0          0
  crossover        :       0.00       0.00          0          0          0
  dins             :       0.00       0.00          0          0          0
  distributiondivin:       0.00       0.00          0          0          0
  dps              :       0.00       0.00          0          0          0
  dualval          :       0.00       0.00          0          0          0
  farkasdiving     :       0.00       0.00          0          0          0
  feaspump         :       0.00       0.00          1          1          1
  fixandinfer      :       0.00       0.00          0          0          0
  fracdiving       :       0.00       0.00          0          0          0
  gins             :       0.00       0.00          0          0          0
  guideddiving     :       0.00       0.00          0          0          0
  indicator        :       0.00       0.00          0          0          0
  intdiving        :       0.00       0.00          0          0          0
  intshifting      :       0.00       0.00          0          0          0
  linesearchdiving :       0.00       0.00          0          0          0
  localbranching   :       0.00       0.00          0          0          0
  locks            :       0.00       0.00          1          0          0
  lpface           :       0.00       0.00          0          0          0
  mpec             :       0.00       0.00          0          0          0
  multistart       :       0.00       0.00          0          0          0
  mutation         :       0.00       0.00          0          0          0
  nlpdiving        :       0.00       0.00          0          0          0
  objpscostdiving  :       0.00       0.00          0          0          0
  octane           :       0.00       0.00          0          0          0
  ofins            :       0.00       0.00          0          0          0
  oneopt           :       0.00       0.00          0          0          0
  padm             :       0.00       0.00          0          0          0
  proximity        :       0.00       0.00          0          0          0
  pscostdiving     :       0.00       0.00          0          0          0
  randrounding     :       0.00       0.00          1          0          0
  rens             :       0.00       0.00          0          0          0
  reoptsols        :       0.00       0.00          0          0          0
  repair           :       0.00       0.00          0          0          0
  rins             :       0.00       0.00          0          0          0
  rootsoldiving    :       0.00       0.00          0          0          0
  rounding         :       0.00       0.00          1          0          0
  shiftandpropagate:       0.00       0.00          1          0          0
  shifting         :       0.00       0.00          1          0          0
  simplerounding   :       0.00       0.00          0          0          0
  subnlp           :       0.00       0.00          0          0          0
  trivial          :       0.00       0.00          2          0          0
  trivialnegation  :       0.00       0.00          0          0          0
  trustregion      :       0.00       0.00          0          0          0
  trysol           :       0.00       0.00          0          0          0
  twoopt           :       0.00       0.00          0          0          0
  undercover       :       0.00       0.00          0          0          0
  vbounds          :       0.00       0.00          0          0          0
  veclendiving     :       0.00       0.00          0          0          0
  zeroobj          :       0.00       0.00          0          0          0
  zirounding       :       0.00       0.00          0          0          0
  other solutions  :          -          -          -          0          -
Diving (single)    :      Calls      Nodes   LP Iters Backtracks  Conflicts   MinDepth   MaxDepth   AvgDepth  RoundSols  NLeafSols  MinSolDpt  MaxSolDpt  AvgSolDpt
  actconsdiving    :          0          -          -          -          -          -          -          -          -          -          -          -          -
  coefdiving       :          0          -          -          -          -          -          -          -          -          -          -          -          -
  conflictdiving   :          0          -          -          -          -          -          -          -          -          -          -          -          -
  distributiondivin:          0          -          -          -          -          -          -          -          -          -          -          -          -
  farkasdiving     :          0          -          -          -          -          -          -          -          -          -          -          -          -
  fracdiving       :          0          -          -          -          -          -          -          -          -          -          -          -          -
  guideddiving     :          0          -          -          -          -          -          -          -          -          -          -          -          -
  linesearchdiving :          0          -          -          -          -          -          -          -          -          -          -          -          -
  pscostdiving     :          0          -          -          -          -          -          -          -          -          -          -          -          -
  veclendiving     :          0          -          -          -          -          -          -          -          -          -          -          -          -
Diving (adaptive)  :      Calls      Nodes   LP Iters Backtracks  Conflicts   MinDepth   MaxDepth   AvgDepth  RoundSols  NLeafSols  MinSolDpt  MaxSolDpt  AvgSolDpt
  actconsdiving    :          0          -          -          -          -          -          -          -          -          -          -          -          -
  coefdiving       :          0          -          -          -          -          -          -          -          -          -          -          -          -
  conflictdiving   :          0          -          -          -          -          -          -          -          -          -          -          -          -
  distributiondivin:          0          -          -          -          -          -          -          -          -          -          -          -          -
  farkasdiving     :          0          -          -          -          -          -          -          -          -          -          -          -          -
  fracdiving       :          0          -          -          -          -          -          -          -          -          -          -          -          -
  guideddiving     :          0          -          -          -          -          -          -          -          -          -          -          -          -
  linesearchdiving :          0          -          -          -          -          -          -          -          -          -          -          -          -
  pscostdiving     :          0          -          -          -          -          -          -          -          -          -          -          -          -
  veclendiving     :          0          -          -          -          -          -          -          -          -          -          -          -          -
Neighborhoods      :      Calls  SetupTime  SolveTime SolveNodes       Sols       Best       Exp3  EpsGreedy        UCB TgtFixRate  Opt  Inf Node Stal  Sol  Usr Othr Actv
  rens             :          0       0.00       0.00          0          0          0    0.00000   -1.00000    1.00000      0.900    0    0    0    0    0    0    0    1
  rins             :          0       0.00       0.00          0          0          0    0.00000   -1.00000    1.00000      0.900    0    0    0    0    0    0    0    1
  mutation         :          0       0.00       0.00          0          0          0    0.00000   -1.00000    1.00000      0.900    0    0    0    0    0    0    0    1
  localbranching   :          0       0.00       0.00          0          0          0    0.00000   -1.00000    1.00000      0.900    0    0    0    0    0    0    0    1
  crossover        :          0       0.00       0.00          0          0          0    0.00000   -1.00000    1.00000      0.900    0    0    0    0    0    0    0    1
  proximity        :          0       0.00       0.00          0          0          0    0.00000   -1.00000    1.00000      0.900    0    0    0    0    0    0    0    1
  zeroobjective    :          0       0.00       0.00          0          0          0    0.00000   -1.00000    1.00000      0.900    0    0    0    0    0    0    0    1
  dins             :          0       0.00       0.00          0          0          0    0.00000   -1.00000    1.00000      0.900    0    0    0    0    0    0    0    1
  trustregion      :          0       0.00       0.00          0          0          0    0.00000   -1.00000    1.00000      0.900    0    0    0    0    0    0    0    0
LP                 :       Time      Calls Iterations  Iter/call   Iter/sec  Time-0-It Calls-0-It    ItLimit
  primal LP        :       0.00          0          0       0.00          -       0.00          0
  dual LP          :       0.00          1         91      91.00          -       0.00          0
  lex dual LP      :       0.00          0          0       0.00          -
  barrier LP       :       0.00          0          0       0.00          -       0.00          0
  resolve instable :       0.00          0          0       0.00          -
  diving/probing LP:       0.00          3         34      11.33          -
  strong branching :       0.00          0          0       0.00          -          -          -          0
    (at root node) :          -          0          0       0.00          -
  conflict analysis:       0.00          0          0       0.00          -
B&B Tree           :
  number of runs   :          1
  nodes            :          1 (0 internal, 1 leaves)
  feasible leaves  :          0
  infeas. leaves   :          0
  objective leaves :          1
  nodes (total)    :          1 (0 internal, 1 leaves)
  nodes left       :          0
  max depth        :          0
  max depth (total):          0
  backtracks       :          0 (0.0%)
  early backtracks :          0 (0.0%)
  nodes exc. ref.  :          0 (0.0%)
  delayed cutoffs  :          0
  repropagations   :          0 (0 domain reductions, 0 cutoffs)
  avg switch length:       2.00
  switching time   :       0.00
Estim. Tree Size   :          1
Estimation Tree    : 1 nodes (1 visited, 0 internal, 1 leaves, 0 open), weight: 1.0000 completed 1.0000
Estimations        :      estim      value      trend resolution     smooth
  wbe              :          1          -          -          -          -
  tree-profile     :         -1          -          -          -          -
  gap              :          1    1.00000    1.00000          1          1
  tree-weight      :          1    1.00000    1.00000          1          1
  leaf-frequency   :          1    0.50000    1.00000          1          1
  ssg              :          1    0.00000   -1.00000          1          1
  open-nodes       :          1    0.00000    0.00000          1          1
Root Node          :
  First LP value   : -2.23473684210526e+00
  First LP Iters   :         91 (65232.97 Iter/sec)
  First LP Time    :       0.00
  Final Dual Bound : -2.23473684210526e+00
  Final Root Iters :        119
  Root LP Estimate :                     -
Solution           :
  Solutions found  :          1 (1 improvements)
  First Solution   : -2.23473684210526e+00   (in run 1, after 1 nodes, 0.19 seconds, depth 0, found by <feaspump>)
  Gap First Sol.   :       0.00 %
  Gap Last Sol.    :       0.00 %
  Primal Bound     : -2.23473684210526e+00   (in run 1, after 1 nodes, 0.19 seconds, depth 0, found by <feaspump>)
  Dual Bound       : -2.23473684210526e+00
  Gap              :       0.00 %
Integrals          :      Total       Avg%
  primal-dual      :      18.91      99.89
  primal-ref       :          -          - (not evaluated)
  dual-ref         :          -          - (not evaluated)
